n_res = 4;
rc = [ 0, 0, 0, 0 ];
n_tasks = 30;
d = [ 3, 5, 8, 5, 3, 5, 3, 10, 6, 7, 8, 7, 1, 8, 4, 6, 3, 9, 6, 5, 6, 7, 3, 9, 10, 6, 2, 9, 1, 5 ];
rr = [| 0, 0, 0, 0, 0, 0, 0, 0, 0, 0, 0, 0, 0, 0, 0, 0, 0, 0, 0, 0, 0, 0, 0, 0, 0, 0, 0, 0, 0, 0
      | 0, 0, 0, 0, 0, 0, 0, 0, 0, 0, 0, 0, 0, 0, 0, 0, 0, 0, 0, 0, 0, 0, 0, 0, 0, 0, 0, 0, 0, 0
      | 0, 0, 0, 0, 0, 0, 0, 0, 0, 0, 0, 0, 0, 0, 0, 0, 0, 0, 0, 0, 0, 0, 0, 0, 0, 0, 0, 0, 0, 0
      | 0, 0, 0, 0, 0, 0, 0, 0, 0, 0, 0, 0, 0, 0, 0, 0, 0, 0, 0, 0, 0, 0, 0, 0, 0, 0, 0, 0, 0, 0 |];
suc = [ { 4, 5, 6 },
       { 12, 15, 20 },
       { 7, 9, 19 },
       { 8, 10, 11 },
       { 7, 21, 24 },
       { 8, 13, 14 },
       { 10, 27 },
       { 16, 19, 23 },
       { 11, 14, 20 },
       { 12, 13, 14 },
       { 15, 17, 28 },
       { 16, 18 },
       { 18, 22, 25 },
       { 16, 17, 23 },
       { 21, 23 },
       { 22, 26 },
       { 18 },
       { 29 },
       { 20, 21 },
       { 22, 24, 25 },
       { 30 },
       { 28, 30 },
       { 25, 29 },
       { 26, 27, 29 },
       { 26 },
       { 30 },
       { 28 },
       {  },
       {  },
       {  } ];
